p edge 20 41
e 1 2
e 1 5
e 1 8
e 1 9
e 1 10
e 1 11
e 1 14
e 1 15
e 1 17
e 1 18
e 2 4
e 2 16
e 3 4
e 3 5
e 3 9
e 3 11
e 3 16
e 3 17
e 4 6
e 4 10
e 4 12
e 4 13
e 4 14
e 4 15
e 4 18
e 4 19
e 5 7
e 5 13
e 5 20
e 6 7
e 6 8
e 6 20
e 7 11
e 7 12
e 7 15
e 7 16
e 7 19
e 8 13
e 9 13
e 10 16
e 11 13
